Minimize
  - 13 y_0 - 15 y_1 - 10 y_2 - 3 y_3 - 8 y_5 - 10 y_6 - 9 y_7 - 15 y_8
   - 7 y_9 - 14 y_10 - 15 y_11 - 11 y_12 - 7 y_13 - 17 y_14 - 6 y_15
   - 14 y_16 - 15 y_17 - 5 y_18 - 10 y_19 - 7 y_20 - 15 y_21 - 9 y_22
   - 5 y_23 - 11 y_24 - 15 y_25 - 14 y_26 - 10 y_27 - 14 y_28 - 11 y_29
   - 15 y_30 - 7 y_31 - 12 y_32 - 7 y_33 - 6 y_34 - y_35 - 10 y_36 - 9 y_37
   - 10 y_38 - 20 y_39 - 7 y_40 - 9 y_41 - 8 y_42 - 10 y_43 - 5 y_44
   - 12 y_45 - 15 y_46 - 16 y_47 - 20 y_48 - 10 y_49 + 58 x_0_1 + 58 x_0_2
   + 60 x_0_3 + 16 x_0_6 + 81 x_0_7 + 52 x_0_9 + 48 x_0_10 + 91 x_0_12
   + 27 x_0_13 + 98 x_0_14 + 25 x_0_19 + 69 x_0_21 + 53 x_0_22 + 84 x_0_24
   + 86 x_0_25 + 50 x_0_26 + 10 x_0_28 + 31 x_0_30 + 28 x_0_31 + 7 x_0_32
   + 80 x_0_33 + 79 x_0_36 + 70 x_0_37 + 48 x_0_39 + 27 x_0_40 + 56 x_0_41
   + 14 x_0_43 + 49 x_0_48 + 52 x_1_3 + 91 x_1_5 + 56 x_1_7 + 100 x_1_8
   + 30 x_1_9 + 97 x_1_10 + 109 x_1_16 + 15 x_1_21 + 23 x_1_22 + 94 x_1_29
   + 86 x_1_30 + 61 x_1_32 + 55 x_1_34 + 59 x_1_35 + 49 x_1_36 + 59 x_1_40
   + 25 x_1_41 + 29 x_1_42 + 54 x_1_43 + 46 x_1_44 + 38 x_1_47 + 55 x_2_3
   + 41 x_2_4 + 23 x_2_5 + 42 x_2_6 + 77 x_2_7 + 68 x_2_9 + 25 x_2_10
   + 42 x_2_13 + 108 x_2_14 + 97 x_2_21 + 57 x_2_23 + 85 x_2_24 + 65 x_2_28
   + 52 x_2_31 + 79 x_2_36 + 53 x_2_38 + 37 x_2_40 + 75 x_2_41 + 64 x_2_42
   + 63 x_2_44 + 99 x_2_46 + 103 x_2_47 + 102 x_2_48 + 61 x_2_49 + 14 x_3_4
   + 44 x_3_5 + 75 x_3_8 + 34 x_3_13 + 58 x_3_16 + 26 x_3_18 + 39 x_3_20
   + 31 x_3_24 + 45 x_3_25 + 71 x_3_26 + 41 x_3_27 + 26 x_3_33 + 12 x_3_35
   + 25 x_3_36 + 27 x_3_41 + 30 x_3_42 + 46 x_3_43 + 8 x_3_44 + 44 x_3_46
   + 37 x_4_7 + 57 x_4_10 + 61 x_4_11 + 55 x_4_16 + 19 x_4_23 + 42 x_4_29
   + 29 x_4_31 + 28 x_4_33 + 24 x_4_34 + 28 x_4_40 + 37 x_4_41 + 32 x_4_42
   + 21 x_4_44 + 58 x_4_46 + 62 x_4_47 + 80 x_4_48 + 61 x_5_7 + 62 x_5_9
   + 23 x_5_12 + 48 x_5_13 + 23 x_5_18 + 41 x_5_23 + 89 x_5_25 + 47 x_5_26
   + 76 x_5_28 + 23 x_5_29 + 56 x_5_31 + 64 x_5_32 + 34 x_5_33 + 34 x_5_35
   + 67 x_5_37 + 62 x_5_38 + 107 x_5_39 + 45 x_5_40 + 69 x_5_41 + 63 x_5_42
   + 85 x_5_46 + 109 x_5_48 + 75 x_6_7 + 36 x_6_8 + 50 x_6_9 + 34 x_6_10
   + 34 x_6_11 + 76 x_6_12 + 18 x_6_13 + 97 x_6_14 + 58 x_6_20 + 73 x_6_21
   + 53 x_6_22 + 61 x_6_23 + 85 x_6_25 + 25 x_6_31 + 69 x_6_33 + 14 x_6_38
   + 10 x_6_43 + 56 x_6_44 + 33 x_6_45 + 79 x_6_49 + 58 x_7_12 + 34 x_7_15
   + 61 x_7_16 + 62 x_7_17 + 39 x_7_18 + 20 x_7_23 + 11 x_7_24 + 32 x_7_25
   + 79 x_7_28 + 77 x_7_29 + 54 x_7_31 + 30 x_7_33 + 69 x_7_38 + 46 x_7_42
   + 69 x_7_43 + 19 x_7_44 + 84 x_7_45 + 81 x_8_9 + 75 x_8_15 + 91 x_8_16
   + 93 x_8_17 + 30 x_8_19 + 61 x_8_20 + 80 x_8_23 + 106 x_8_24 + 7 x_8_26
   + 58 x_8_28 + 30 x_8_29 + 42 x_8_32 + 82 x_8_33 + 100 x_8_36 + 88 x_8_41
   + 82 x_8_44 + 97 x_8_48 + 89 x_8_49 + 77 x_9_10 + 80 x_9_11 + 71 x_9_12
   + 34 x_9_13 + 45 x_9_15 + 32 x_9_17 + 47 x_9_18 + 52 x_9_19 + 30 x_9_21
   + 7 x_9_22 + 78 x_9_26 + 29 x_9_27 + 48 x_9_28 + 69 x_9_29 + 26 x_9_31
   + 28 x_9_36 + 18 x_9_37 + 40 x_9_38 + 58 x_9_39 + 39 x_9_40 + 7 x_9_41
   + 42 x_9_43 + 17 x_9_44 + 70 x_9_45 + 6 x_10_11 + 71 x_10_12
   + 69 x_10_15 + 85 x_10_16 + 90 x_10_17 + 64 x_10_18 + 27 x_10_19
   + 82 x_10_22 + 3 x_10_26 + 62 x_10_27 + 25 x_10_29 + 22 x_10_30
   + 55 x_10_31 + 41 x_10_32 + 76 x_10_33 + 43 x_10_34 + 59 x_10_35
   + 95 x_10_36 + 39 x_10_40 + 11 x_10_45 + 77 x_11_12 + 125 x_11_14
   + 91 x_11_16 + 90 x_11_17 + 70 x_11_18 + 61 x_11_20 + 115 x_11_25
   + 9 x_11_26 + 62 x_11_27 + 55 x_11_28 + 32 x_11_29 + 17 x_11_30
   + 39 x_11_32 + 63 x_11_35 + 94 x_11_37 + 94 x_11_39 + 41 x_11_40
   + 86 x_11_41 + 43 x_11_43 + 81 x_11_44 + 66 x_12_13 + 69 x_12_19
   + 18 x_12_20 + 98 x_12_21 + 78 x_12_22 + 42 x_12_23 + 89 x_12_25
   + 83 x_12_27 + 95 x_12_28 + 86 x_12_30 + 85 x_12_32 + 63 x_12_34
   + 44 x_12_35 + 64 x_12_36 + 64 x_12_40 + 56 x_12_44 + 60 x_12_45
   + 124 x_12_48 + 25 x_12_49 + 48 x_13_15 + 79 x_13_16 + 46 x_13_18
   + 19 x_13_19 + 59 x_13_21 + 62 x_13_24 + 69 x_13_25 + 43 x_13_29
   + 3 x_13_34 + 28 x_13_35 + 6 x_13_40 + 40 x_13_41 + 24 x_13_42
   + 12 x_13_43 + 39 x_13_44 + 71 x_13_47 + 64 x_13_49 + 67 x_14_15
   + 62 x_14_17 + 99 x_14_19 + 87 x_14_20 + 37 x_14_21 + 53 x_14_23
   + 14 x_14_25 + 120 x_14_30 + 63 x_14_33 + 81 x_14_34 + 31 x_14_37
   + 87 x_14_38 + 86 x_14_40 + 42 x_14_41 + 60 x_14_42 + 89 x_14_43
   + 10 x_14_46 + 15 x_14_47 + 90 x_14_48 + 77 x_15_17 + 5 x_15_18
   + 21 x_15_20 + 44 x_15_24 + 64 x_15_25 + 69 x_15_26 + 78 x_15_30
   + 70 x_15_32 + 7 x_15_33 + 39 x_15_36 + 43 x_15_37 + 63 x_15_38
   + 49 x_15_40 + 59 x_15_45 + 101 x_15_48 + 17 x_15_49 + 34 x_16_18
   + 83 x_16_19 + 105 x_16_21 + 86 x_16_22 + 93 x_16_25 + 60 x_16_29
   + 100 x_16_30 + 84 x_16_31 + 98 x_16_32 + 76 x_16_34 + 75 x_16_37
   + 94 x_16_38 + 133 x_16_39 + 78 x_16_40 + 86 x_16_42 + 90 x_16_43
   + 97 x_16_47 + 25 x_16_49 + 78 x_17_18 + 63 x_17_19 + 87 x_17_20
   + 25 x_17_21 + 64 x_17_23 + 58 x_17_24 + 48 x_17_25 + 40 x_17_28
   + 90 x_17_29 + 37 x_17_31 + 58 x_17_35 + 42 x_17_38 + 53 x_17_40
   + 29 x_17_41 + 26 x_17_42 + 49 x_17_44 + 48 x_17_47 + 29 x_17_48
   + 89 x_17_49 + 54 x_18_19 + 54 x_18_22 + 49 x_18_24 + 68 x_18_25
   + 61 x_18_27 + 67 x_18_32 + 12 x_18_33 + 44 x_18_34 + 20 x_18_35
   + 61 x_18_38 + 99 x_18_39 + 46 x_18_40 + 53 x_18_41 + 58 x_18_43
   + 54 x_18_45 + 72 x_18_47 + 101 x_18_48 + 51 x_19_20 + 78 x_19_21
   + 57 x_19_22 + 80 x_19_24 + 88 x_19_25 + 35 x_19_27 + 22 x_19_30
   + 28 x_19_31 + 64 x_19_33 + 18 x_19_34 + 68 x_19_37 + 70 x_19_39
   + 13 x_19_40 + 17 x_19_43 + 71 x_19_48 + 87 x_20_21 + 34 x_20_23
   + 54 x_20_26 + 58 x_20_36 + 61 x_20_37 + 63 x_20_38 + 107 x_20_39
   + 59 x_20_43 + 44 x_20_45 + 78 x_20_46 + 108 x_20_48 + 30 x_20_49
   + 23 x_21_22 + 57 x_21_23 + 39 x_21_24 + 62 x_21_28 + 98 x_21_29
   + 72 x_21_33 + 58 x_21_35 + 40 x_21_36 + 30 x_21_37 + 51 x_21_39
   + 64 x_21_43 + 42 x_21_44 + 23 x_21_47 + 80 x_21_49 + 38 x_22_23
   + 34 x_22_24 + 29 x_22_27 + 48 x_22_28 + 75 x_22_29 + 76 x_22_30
   + 29 x_22_31 + 54 x_22_32 + 53 x_22_33 + 42 x_22_38 + 3 x_22_41
   + 23 x_22_44 + 42 x_22_46 + 34 x_22_47 + 64 x_22_49 + 30 x_23_24
   + 49 x_23_25 + 53 x_23_27 + 57 x_23_29 + 80 x_23_30 + 44 x_23_31
   + 66 x_23_32 + 24 x_23_36 + 28 x_23_37 + 88 x_23_39 + 47 x_23_40
   + 36 x_23_41 + 65 x_23_45 + 44 x_23_46 + 53 x_23_47 + 90 x_23_48
   + 26 x_23_49 + 61 x_24_27 + 57 x_24_31 + 83 x_24_32 + 41 x_24_33
   + 62 x_24_34 + 6 x_24_36 + 15 x_24_37 + 85 x_24_39 + 67 x_24_40
   + 31 x_24_41 + 47 x_24_42 + 72 x_24_43 + 14 x_24_46 + 61 x_25_31
   + 86 x_25_32 + 61 x_25_33 + 57 x_25_35 + 23 x_25_37 + 75 x_25_38
   + 74 x_25_39 + 75 x_25_40 + 30 x_25_41 + 77 x_25_43 + 37 x_25_44
   + 4 x_25_47 + 76 x_25_48 + 68 x_25_49 + 64 x_26_27 + 59 x_26_28
   + 57 x_26_31 + 76 x_26_33 + 44 x_26_34 + 59 x_26_35 + 91 x_26_37
   + 50 x_26_38 + 98 x_26_39 + 85 x_26_41 + 70 x_26_42 + 10 x_26_45
   + 116 x_26_47 + 99 x_26_48 + 19 x_27_28 + 11 x_27_31 + 66 x_27_33
   + 41 x_27_35 + 56 x_27_36 + 46 x_27_37 + 15 x_27_38 + 40 x_27_39
   + 42 x_27_44 + 58 x_27_45 + 70 x_27_46 + 40 x_28_30 + 16 x_28_32
   + 82 x_28_33 + 32 x_28_34 + 56 x_28_35 + 76 x_28_36 + 66 x_28_37
   + 31 x_28_40 + 34 x_28_42 + 57 x_28_45 + 81 x_28_47 + 39 x_28_48
   + 43 x_29_30 + 53 x_29_31 + 51 x_29_32 + 44 x_29_35 + 80 x_29_36
   + 78 x_29_37 + 54 x_29_38 + 102 x_29_39 + 65 x_29_42 + 15 x_29_45
   + 100 x_29_46 + 104 x_29_47 + 61 x_29_49 + 25 x_30_32 + 85 x_30_33
   + 79 x_30_41 + 61 x_30_42 + 32 x_30_43 + 28 x_30_45 + 113 x_30_46
   + 51 x_31_36 + 43 x_31_37 + 17 x_31_40 + 35 x_31_44 + 67 x_31_46
   + 77 x_32_36 + 69 x_32_37 + 12 x_32_38 + 55 x_32_39 + 57 x_32_41
   + 39 x_32_42 + 10 x_32_43 + 93 x_32_46 + 88 x_32_47 + 55 x_32_48
   + 42 x_33_37 + 55 x_33_40 + 52 x_33_41 + 55 x_33_42 + 66 x_33_45
   + 50 x_34_37 + 63 x_34_39 + 41 x_34_41 + 39 x_34_44 + 37 x_34_45
   + 74 x_34_46 + 64 x_34_48 + 63 x_34_49 + 79 x_35_39 + 30 x_35_40
   + 81 x_35_48 + 37 x_35_49 + 66 x_36_38 + 83 x_36_39 + 27 x_36_41
   + 18 x_36_44 + 30 x_36_47 + 57 x_37_38 + 16 x_37_41 + 15 x_37_44
   + 25 x_37_46 + 26 x_37_47 + 50 x_37_49 + 45 x_38_41 + 27 x_38_42
   + 65 x_39_40 + 55 x_39_41 + 47 x_39_42 + 95 x_39_45 + 88 x_39_46
   + 114 x_39_49 + 30 x_40_42 + 13 x_40_43 + 43 x_40_44 + 79 x_40_46
   + 66 x_40_48 + 65 x_40_49 + 47 x_41_43 + 77 x_41_45 + 38 x_41_46
   + 32 x_41_47 + 57 x_41_48 + 29 x_42_43 + 29 x_42_44 + 63 x_42_45
   + 56 x_42_46 + 50 x_42_47 + 49 x_42_48 + 66 x_42_49 + 79 x_43_47
   + 55 x_43_48 + 68 x_44_45 + 41 x_44_47 + 76 x_44_48 + 40 x_44_49
   + 106 x_45_46 + 96 x_45_48 + 73 x_45_49 + 90 x_46_48 + 58 x_46_49
   + 87 x_47_0 + 75 x_47_48 + 524 Constant
Subject To
 c_0: y_22 = 1
 c_1_0: y_0 >= 1
 c_1_1: y_1 >= 1
 c_1_2: y_2 + y_29 >= 1
 c_1_3: y_3 >= 1
 c_1_4: y_4 + y_35 >= 1
 c_1_5: y_5 >= 1
 c_1_6: y_6 >= 1
 c_1_7: y_7 >= 1
 c_1_8: y_8 >= 1
 c_1_9: y_9 >= 1
 c_1_10: y_10 >= 1
 c_1_11: y_11 >= 1
 c_1_12: y_12 >= 1
 c_1_13: y_13 >= 1
 c_1_14: y_14 >= 1
 c_1_15: y_15 >= 1
 c_1_16: y_16 >= 1
 c_1_17: y_17 >= 1
 c_1_18: y_18 >= 1
 c_1_19: y_19 >= 1
 c_1_20: y_20 >= 1
 c_1_21: y_21 >= 1
 c_1_22: y_22 >= 1
 c_1_23: y_23 >= 1
 c_1_24: y_24 >= 1
 c_1_25: y_25 >= 1
 c_1_26: y_26 >= 1
 c_1_27: y_27 >= 1
 c_1_28: y_28 >= 1
 c_1_29: y_2 + y_29 >= 1
 c_1_30: y_30 >= 1
 c_1_31: y_31 >= 1
 c_1_32: y_32 >= 1
 c_1_33: y_33 >= 1
 c_1_34: y_34 >= 1
 c_1_35: y_4 + y_35 >= 1
 c_1_36: y_36 >= 1
 c_1_37: y_37 >= 1
 c_1_38: y_38 >= 1
 c_1_39: y_39 + y_48 >= 1
 c_1_40: y_40 >= 1
 c_1_41: y_41 >= 1
 c_1_42: y_42 >= 1
 c_1_43: y_43 >= 1
 c_1_44: y_44 >= 1
 c_1_45: y_45 >= 1
 c_1_46: y_46 >= 1
 c_1_47: y_47 >= 1
 c_1_48: y_39 + y_48 >= 1
 c_1_49: y_49 >= 1
 c_2_0: - 2 y_0 + x_0_1 + x_0_2 + x_0_3 + x_0_6 + x_0_7 + x_0_9 + x_0_10
   + x_0_12 + x_0_13 + x_0_14 + x_0_19 + x_0_21 + x_0_22 + x_0_24 + x_0_25
   + x_0_26 + x_0_28 + x_0_30 + x_0_31 + x_0_32 + x_0_33 + x_0_36 + x_0_37
   + x_0_39 + x_0_40 + x_0_41 + x_0_43 + x_0_48 + x_47_0 = 0
 c_2_1: - 2 y_1 + x_0_1 + x_1_3 + x_1_5 + x_1_7 + x_1_8 + x_1_9 + x_1_10
   + x_1_16 + x_1_21 + x_1_22 + x_1_29 + x_1_30 + x_1_32 + x_1_34 + x_1_35
   + x_1_36 + x_1_40 + x_1_41 + x_1_42 + x_1_43 + x_1_44 + x_1_47 = 0
 c_2_2: - 2 y_2 + x_0_2 + x_2_3 + x_2_4 + x_2_5 + x_2_6 + x_2_7 + x_2_9
   + x_2_10 + x_2_13 + x_2_14 + x_2_21 + x_2_23 + x_2_24 + x_2_28 + x_2_31
   + x_2_36 + x_2_38 + x_2_40 + x_2_41 + x_2_42 + x_2_44 + x_2_46 + x_2_47
   + x_2_48 + x_2_49 = 0
 c_2_3: - 2 y_3 + x_0_3 + x_1_3 + x_2_3 + x_3_4 + x_3_5 + x_3_8 + x_3_13
   + x_3_16 + x_3_18 + x_3_20 + x_3_24 + x_3_25 + x_3_26 + x_3_27 + x_3_33
   + x_3_35 + x_3_36 + x_3_41 + x_3_42 + x_3_43 + x_3_44 + x_3_46 = 0
 c_2_4: - 2 y_4 + x_2_4 + x_3_4 + x_4_7 + x_4_10 + x_4_11 + x_4_16 + x_4_23
   + x_4_29 + x_4_31 + x_4_33 + x_4_34 + x_4_40 + x_4_41 + x_4_42 + x_4_44
   + x_4_46 + x_4_47 + x_4_48 = 0
 c_2_5: - 2 y_5 + x_1_5 + x_2_5 + x_3_5 + x_5_7 + x_5_9 + x_5_12 + x_5_13
   + x_5_18 + x_5_23 + x_5_25 + x_5_26 + x_5_28 + x_5_29 + x_5_31 + x_5_32
   + x_5_33 + x_5_35 + x_5_37 + x_5_38 + x_5_39 + x_5_40 + x_5_41 + x_5_42
   + x_5_46 + x_5_48 = 0
 c_2_6: - 2 y_6 + x_0_6 + x_2_6 + x_6_7 + x_6_8 + x_6_9 + x_6_10 + x_6_11
   + x_6_12 + x_6_13 + x_6_14 + x_6_20 + x_6_21 + x_6_22 + x_6_23 + x_6_25
   + x_6_31 + x_6_33 + x_6_38 + x_6_43 + x_6_44 + x_6_45 + x_6_49 = 0
 c_2_7: - 2 y_7 + x_0_7 + x_1_7 + x_2_7 + x_4_7 + x_5_7 + x_6_7 + x_7_12
   + x_7_15 + x_7_16 + x_7_17 + x_7_18 + x_7_23 + x_7_24 + x_7_25 + x_7_28
   + x_7_29 + x_7_31 + x_7_33 + x_7_38 + x_7_42 + x_7_43 + x_7_44 + x_7_45
   = 0
 c_2_8: - 2 y_8 + x_1_8 + x_3_8 + x_6_8 + x_8_9 + x_8_15 + x_8_16 + x_8_17
   + x_8_19 + x_8_20 + x_8_23 + x_8_24 + x_8_26 + x_8_28 + x_8_29 + x_8_32
   + x_8_33 + x_8_36 + x_8_41 + x_8_44 + x_8_48 + x_8_49 = 0
 c_2_9: - 2 y_9 + x_0_9 + x_1_9 + x_2_9 + x_5_9 + x_6_9 + x_8_9 + x_9_10
   + x_9_11 + x_9_12 + x_9_13 + x_9_15 + x_9_17 + x_9_18 + x_9_19 + x_9_21
   + x_9_22 + x_9_26 + x_9_27 + x_9_28 + x_9_29 + x_9_31 + x_9_36 + x_9_37
   + x_9_38 + x_9_39 + x_9_40 + x_9_41 + x_9_43 + x_9_44 + x_9_45 = 0
 c_2_10: - 2 y_10 + x_0_10 + x_1_10 + x_2_10 + x_4_10 + x_6_10 + x_9_10
   + x_10_11 + x_10_12 + x_10_15 + x_10_16 + x_10_17 + x_10_18 + x_10_19
   + x_10_22 + x_10_26 + x_10_27 + x_10_29 + x_10_30 + x_10_31 + x_10_32
   + x_10_33 + x_10_34 + x_10_35 + x_10_36 + x_10_40 + x_10_45 = 0
 c_2_11: - 2 y_11 + x_4_11 + x_6_11 + x_9_11 + x_10_11 + x_11_12 + x_11_14
   + x_11_16 + x_11_17 + x_11_18 + x_11_20 + x_11_25 + x_11_26 + x_11_27
   + x_11_28 + x_11_29 + x_11_30 + x_11_32 + x_11_35 + x_11_37 + x_11_39
   + x_11_40 + x_11_41 + x_11_43 + x_11_44 = 0
 c_2_12: - 2 y_12 + x_0_12 + x_5_12 + x_6_12 + x_7_12 + x_9_12 + x_10_12
   + x_11_12 + x_12_13 + x_12_19 + x_12_20 + x_12_21 + x_12_22 + x_12_23
   + x_12_25 + x_12_27 + x_12_28 + x_12_30 + x_12_32 + x_12_34 + x_12_35
   + x_12_36 + x_12_40 + x_12_44 + x_12_45 + x_12_48 + x_12_49 = 0
 c_2_13: - 2 y_13 + x_0_13 + x_2_13 + x_3_13 + x_5_13 + x_6_13 + x_9_13
   + x_12_13 + x_13_15 + x_13_16 + x_13_18 + x_13_19 + x_13_21 + x_13_24
   + x_13_25 + x_13_29 + x_13_34 + x_13_35 + x_13_40 + x_13_41 + x_13_42
   + x_13_43 + x_13_44 + x_13_47 + x_13_49 = 0
 c_2_14: - 2 y_14 + x_0_14 + x_2_14 + x_6_14 + x_11_14 + x_14_15 + x_14_17
   + x_14_19 + x_14_20 + x_14_21 + x_14_23 + x_14_25 + x_14_30 + x_14_33
   + x_14_34 + x_14_37 + x_14_38 + x_14_40 + x_14_41 + x_14_42 + x_14_43
   + x_14_46 + x_14_47 + x_14_48 = 0
 c_2_15: - 2 y_15 + x_7_15 + x_8_15 + x_9_15 + x_10_15 + x_13_15 + x_14_15
   + x_15_17 + x_15_18 + x_15_20 + x_15_24 + x_15_25 + x_15_26 + x_15_30
   + x_15_32 + x_15_33 + x_15_36 + x_15_37 + x_15_38 + x_15_40 + x_15_45
   + x_15_48 + x_15_49 = 0
 c_2_16: - 2 y_16 + x_1_16 + x_3_16 + x_4_16 + x_7_16 + x_8_16 + x_10_16
   + x_11_16 + x_13_16 + x_16_18 + x_16_19 + x_16_21 + x_16_22 + x_16_25
   + x_16_29 + x_16_30 + x_16_31 + x_16_32 + x_16_34 + x_16_37 + x_16_38
   + x_16_39 + x_16_40 + x_16_42 + x_16_43 + x_16_47 + x_16_49 = 0
 c_2_17: - 2 y_17 + x_7_17 + x_8_17 + x_9_17 + x_10_17 + x_11_17 + x_14_17
   + x_15_17 + x_17_18 + x_17_19 + x_17_20 + x_17_21 + x_17_23 + x_17_24
   + x_17_25 + x_17_28 + x_17_29 + x_17_31 + x_17_35 + x_17_38 + x_17_40
   + x_17_41 + x_17_42 + x_17_44 + x_17_47 + x_17_48 + x_17_49 = 0
 c_2_18: - 2 y_18 + x_3_18 + x_5_18 + x_7_18 + x_9_18 + x_10_18 + x_11_18
   + x_13_18 + x_15_18 + x_16_18 + x_17_18 + x_18_19 + x_18_22 + x_18_24
   + x_18_25 + x_18_27 + x_18_32 + x_18_33 + x_18_34 + x_18_35 + x_18_38
   + x_18_39 + x_18_40 + x_18_41 + x_18_43 + x_18_45 + x_18_47 + x_18_48
   = 0
 c_2_19: - 2 y_19 + x_0_19 + x_8_19 + x_9_19 + x_10_19 + x_12_19 + x_13_19
   + x_14_19 + x_16_19 + x_17_19 + x_18_19 + x_19_20 + x_19_21 + x_19_22
   + x_19_24 + x_19_25 + x_19_27 + x_19_30 + x_19_31 + x_19_33 + x_19_34
   + x_19_37 + x_19_39 + x_19_40 + x_19_43 + x_19_48 = 0
 c_2_20: - 2 y_20 + x_3_20 + x_6_20 + x_8_20 + x_11_20 + x_12_20 + x_14_20
   + x_15_20 + x_17_20 + x_19_20 + x_20_21 + x_20_23 + x_20_26 + x_20_36
   + x_20_37 + x_20_38 + x_20_39 + x_20_43 + x_20_45 + x_20_46 + x_20_48
   + x_20_49 = 0
 c_2_21: - 2 y_21 + x_0_21 + x_1_21 + x_2_21 + x_6_21 + x_9_21 + x_12_21
   + x_13_21 + x_14_21 + x_16_21 + x_17_21 + x_19_21 + x_20_21 + x_21_22
   + x_21_23 + x_21_24 + x_21_28 + x_21_29 + x_21_33 + x_21_35 + x_21_36
   + x_21_37 + x_21_39 + x_21_43 + x_21_44 + x_21_47 + x_21_49 = 0
 c_2_22: - 2 y_22 + x_0_22 + x_1_22 + x_6_22 + x_9_22 + x_10_22 + x_12_22
   + x_16_22 + x_18_22 + x_19_22 + x_21_22 + x_22_23 + x_22_24 + x_22_27
   + x_22_28 + x_22_29 + x_22_30 + x_22_31 + x_22_32 + x_22_33 + x_22_38
   + x_22_41 + x_22_44 + x_22_46 + x_22_47 + x_22_49 = 0
 c_2_23: - 2 y_23 + x_2_23 + x_4_23 + x_5_23 + x_6_23 + x_7_23 + x_8_23
   + x_12_23 + x_14_23 + x_17_23 + x_20_23 + x_21_23 + x_22_23 + x_23_24
   + x_23_25 + x_23_27 + x_23_29 + x_23_30 + x_23_31 + x_23_32 + x_23_36
   + x_23_37 + x_23_39 + x_23_40 + x_23_41 + x_23_45 + x_23_46 + x_23_47
   + x_23_48 + x_23_49 = 0
 c_2_24: - 2 y_24 + x_0_24 + x_2_24 + x_3_24 + x_7_24 + x_8_24 + x_13_24
   + x_15_24 + x_17_24 + x_18_24 + x_19_24 + x_21_24 + x_22_24 + x_23_24
   + x_24_27 + x_24_31 + x_24_32 + x_24_33 + x_24_34 + x_24_36 + x_24_37
   + x_24_39 + x_24_40 + x_24_41 + x_24_42 + x_24_43 + x_24_46 = 0
 c_2_25: - 2 y_25 + x_0_25 + x_3_25 + x_5_25 + x_6_25 + x_7_25 + x_11_25
   + x_12_25 + x_13_25 + x_14_25 + x_15_25 + x_16_25 + x_17_25 + x_18_25
   + x_19_25 + x_23_25 + x_25_31 + x_25_32 + x_25_33 + x_25_35 + x_25_37
   + x_25_38 + x_25_39 + x_25_40 + x_25_41 + x_25_43 + x_25_44 + x_25_47
   + x_25_48 + x_25_49 = 0
 c_2_26: - 2 y_26 + x_0_26 + x_3_26 + x_5_26 + x_8_26 + x_9_26 + x_10_26
   + x_11_26 + x_15_26 + x_20_26 + x_26_27 + x_26_28 + x_26_31 + x_26_33
   + x_26_34 + x_26_35 + x_26_37 + x_26_38 + x_26_39 + x_26_41 + x_26_42
   + x_26_45 + x_26_47 + x_26_48 = 0
 c_2_27: - 2 y_27 + x_3_27 + x_9_27 + x_10_27 + x_11_27 + x_12_27 + x_18_27
   + x_19_27 + x_22_27 + x_23_27 + x_24_27 + x_26_27 + x_27_28 + x_27_31
   + x_27_33 + x_27_35 + x_27_36 + x_27_37 + x_27_38 + x_27_39 + x_27_44
   + x_27_45 + x_27_46 = 0
 c_2_28: - 2 y_28 + x_0_28 + x_2_28 + x_5_28 + x_7_28 + x_8_28 + x_9_28
   + x_11_28 + x_12_28 + x_17_28 + x_21_28 + x_22_28 + x_26_28 + x_27_28
   + x_28_30 + x_28_32 + x_28_33 + x_28_34 + x_28_35 + x_28_36 + x_28_37
   + x_28_40 + x_28_42 + x_28_45 + x_28_47 + x_28_48 = 0
 c_2_29: - 2 y_29 + x_1_29 + x_4_29 + x_5_29 + x_7_29 + x_8_29 + x_9_29
   + x_10_29 + x_11_29 + x_13_29 + x_16_29 + x_17_29 + x_21_29 + x_22_29
   + x_23_29 + x_29_30 + x_29_31 + x_29_32 + x_29_35 + x_29_36 + x_29_37
   + x_29_38 + x_29_39 + x_29_42 + x_29_45 + x_29_46 + x_29_47 + x_29_49
   = 0
 c_2_30: - 2 y_30 + x_0_30 + x_1_30 + x_10_30 + x_11_30 + x_12_30 + x_14_30
   + x_15_30 + x_16_30 + x_19_30 + x_22_30 + x_23_30 + x_28_30 + x_29_30
   + x_30_32 + x_30_33 + x_30_41 + x_30_42 + x_30_43 + x_30_45 + x_30_46
   = 0
 c_2_31: - 2 y_31 + x_0_31 + x_2_31 + x_4_31 + x_5_31 + x_6_31 + x_7_31
   + x_9_31 + x_10_31 + x_16_31 + x_17_31 + x_19_31 + x_22_31 + x_23_31
   + x_24_31 + x_25_31 + x_26_31 + x_27_31 + x_29_31 + x_31_36 + x_31_37
   + x_31_40 + x_31_44 + x_31_46 = 0
 c_2_32: - 2 y_32 + x_0_32 + x_1_32 + x_5_32 + x_8_32 + x_10_32 + x_11_32
   + x_12_32 + x_15_32 + x_16_32 + x_18_32 + x_22_32 + x_23_32 + x_24_32
   + x_25_32 + x_28_32 + x_29_32 + x_30_32 + x_32_36 + x_32_37 + x_32_38
   + x_32_39 + x_32_41 + x_32_42 + x_32_43 + x_32_46 + x_32_47 + x_32_48
   = 0
 c_2_33: - 2 y_33 + x_0_33 + x_3_33 + x_4_33 + x_5_33 + x_6_33 + x_7_33
   + x_8_33 + x_10_33 + x_14_33 + x_15_33 + x_18_33 + x_19_33 + x_21_33
   + x_22_33 + x_24_33 + x_25_33 + x_26_33 + x_27_33 + x_28_33 + x_30_33
   + x_33_37 + x_33_40 + x_33_41 + x_33_42 + x_33_45 = 0
 c_2_34: - 2 y_34 + x_1_34 + x_4_34 + x_10_34 + x_12_34 + x_13_34 + x_14_34
   + x_16_34 + x_18_34 + x_19_34 + x_24_34 + x_26_34 + x_28_34 + x_34_37
   + x_34_39 + x_34_41 + x_34_44 + x_34_45 + x_34_46 + x_34_48 + x_34_49
   = 0
 c_2_35: - 2 y_35 + x_1_35 + x_3_35 + x_5_35 + x_10_35 + x_11_35 + x_12_35
   + x_13_35 + x_17_35 + x_18_35 + x_21_35 + x_25_35 + x_26_35 + x_27_35
   + x_28_35 + x_29_35 + x_35_39 + x_35_40 + x_35_48 + x_35_49 = 0
 c_2_36: - 2 y_36 + x_0_36 + x_1_36 + x_2_36 + x_3_36 + x_8_36 + x_9_36
   + x_10_36 + x_12_36 + x_15_36 + x_20_36 + x_21_36 + x_23_36 + x_24_36
   + x_27_36 + x_28_36 + x_29_36 + x_31_36 + x_32_36 + x_36_38 + x_36_39
   + x_36_41 + x_36_44 + x_36_47 = 0
 c_2_37: - 2 y_37 + x_0_37 + x_5_37 + x_9_37 + x_11_37 + x_14_37 + x_15_37
   + x_16_37 + x_19_37 + x_20_37 + x_21_37 + x_23_37 + x_24_37 + x_25_37
   + x_26_37 + x_27_37 + x_28_37 + x_29_37 + x_31_37 + x_32_37 + x_33_37
   + x_34_37 + x_37_38 + x_37_41 + x_37_44 + x_37_46 + x_37_47 + x_37_49
   = 0
 c_2_38: - 2 y_38 + x_2_38 + x_5_38 + x_6_38 + x_7_38 + x_9_38 + x_14_38
   + x_15_38 + x_16_38 + x_17_38 + x_18_38 + x_20_38 + x_22_38 + x_25_38
   + x_26_38 + x_27_38 + x_29_38 + x_32_38 + x_36_38 + x_37_38 + x_38_41
   + x_38_42 = 0
 c_2_39: - 2 y_39 + x_0_39 + x_5_39 + x_9_39 + x_11_39 + x_16_39 + x_18_39
   + x_19_39 + x_20_39 + x_21_39 + x_23_39 + x_24_39 + x_25_39 + x_26_39
   + x_27_39 + x_29_39 + x_32_39 + x_34_39 + x_35_39 + x_36_39 + x_39_40
   + x_39_41 + x_39_42 + x_39_45 + x_39_46 + x_39_49 = 0
 c_2_40: - 2 y_40 + x_0_40 + x_1_40 + x_2_40 + x_4_40 + x_5_40 + x_9_40
   + x_10_40 + x_11_40 + x_12_40 + x_13_40 + x_14_40 + x_15_40 + x_16_40
   + x_17_40 + x_18_40 + x_19_40 + x_23_40 + x_24_40 + x_25_40 + x_28_40
   + x_31_40 + x_33_40 + x_35_40 + x_39_40 + x_40_42 + x_40_43 + x_40_44
   + x_40_46 + x_40_48 + x_40_49 = 0
 c_2_41: - 2 y_41 + x_0_41 + x_1_41 + x_2_41 + x_3_41 + x_4_41 + x_5_41
   + x_8_41 + x_9_41 + x_11_41 + x_13_41 + x_14_41 + x_17_41 + x_18_41
   + x_22_41 + x_23_41 + x_24_41 + x_25_41 + x_26_41 + x_30_41 + x_32_41
   + x_33_41 + x_34_41 + x_36_41 + x_37_41 + x_38_41 + x_39_41 + x_41_43
   + x_41_45 + x_41_46 + x_41_47 + x_41_48 = 0
 c_2_42: - 2 y_42 + x_1_42 + x_2_42 + x_3_42 + x_4_42 + x_5_42 + x_7_42
   + x_13_42 + x_14_42 + x_16_42 + x_17_42 + x_24_42 + x_26_42 + x_28_42
   + x_29_42 + x_30_42 + x_32_42 + x_33_42 + x_38_42 + x_39_42 + x_40_42
   + x_42_43 + x_42_44 + x_42_45 + x_42_46 + x_42_47 + x_42_48 + x_42_49
   = 0
 c_2_43: - 2 y_43 + x_0_43 + x_1_43 + x_3_43 + x_6_43 + x_7_43 + x_9_43
   + x_11_43 + x_13_43 + x_14_43 + x_16_43 + x_18_43 + x_19_43 + x_20_43
   + x_21_43 + x_24_43 + x_25_43 + x_30_43 + x_32_43 + x_40_43 + x_41_43
   + x_42_43 + x_43_47 + x_43_48 = 0
 c_2_44: - 2 y_44 + x_1_44 + x_2_44 + x_3_44 + x_4_44 + x_6_44 + x_7_44
   + x_8_44 + x_9_44 + x_11_44 + x_12_44 + x_13_44 + x_17_44 + x_21_44
   + x_22_44 + x_25_44 + x_27_44 + x_31_44 + x_34_44 + x_36_44 + x_37_44
   + x_40_44 + x_42_44 + x_44_45 + x_44_47 + x_44_48 + x_44_49 = 0
 c_2_45: - 2 y_45 + x_6_45 + x_7_45 + x_9_45 + x_10_45 + x_12_45 + x_15_45
   + x_18_45 + x_20_45 + x_23_45 + x_26_45 + x_27_45 + x_28_45 + x_29_45
   + x_30_45 + x_33_45 + x_34_45 + x_39_45 + x_41_45 + x_42_45 + x_44_45
   + x_45_46 + x_45_48 + x_45_49 = 0
 c_2_46: - 2 y_46 + x_2_46 + x_3_46 + x_4_46 + x_5_46 + x_14_46 + x_20_46
   + x_22_46 + x_23_46 + x_24_46 + x_27_46 + x_29_46 + x_30_46 + x_31_46
   + x_32_46 + x_34_46 + x_37_46 + x_39_46 + x_40_46 + x_41_46 + x_42_46
   + x_45_46 + x_46_48 + x_46_49 = 0
 c_2_47: - 2 y_47 + x_1_47 + x_2_47 + x_4_47 + x_13_47 + x_14_47 + x_16_47
   + x_17_47 + x_18_47 + x_21_47 + x_22_47 + x_23_47 + x_25_47 + x_26_47
   + x_28_47 + x_29_47 + x_32_47 + x_36_47 + x_37_47 + x_41_47 + x_42_47
   + x_43_47 + x_44_47 + x_47_0 + x_47_48 = 0
 c_2_48: - 2 y_48 + x_0_48 + x_2_48 + x_4_48 + x_5_48 + x_8_48 + x_12_48
   + x_14_48 + x_15_48 + x_17_48 + x_18_48 + x_19_48 + x_20_48 + x_23_48
   + x_25_48 + x_26_48 + x_28_48 + x_32_48 + x_34_48 + x_35_48 + x_40_48
   + x_41_48 + x_42_48 + x_43_48 + x_44_48 + x_45_48 + x_46_48 + x_47_48
   = 0
 c_2_49: - 2 y_49 + x_2_49 + x_6_49 + x_8_49 + x_12_49 + x_13_49 + x_15_49
   + x_16_49 + x_17_49 + x_20_49 + x_21_49 + x_22_49 + x_23_49 + x_25_49
   + x_29_49 + x_34_49 + x_35_49 + x_37_49 + x_39_49 + x_40_49 + x_42_49
   + x_44_49 + x_45_49 + x_46_49 = 0
Bounds
 Constant = 1
Binaries
 y_0 y_1 y_2 y_3 y_4 y_5 y_6 y_7 y_8 y_9 y_10 y_11 y_12 y_13 y_14 y_15 y_16
 y_17 y_18 y_19 y_20 y_21 y_22 y_23 y_24 y_25 y_26 y_27 y_28 y_29 y_30 y_31
 y_32 y_33 y_34 y_35 y_36 y_37 y_38 y_39 y_40 y_41 y_42 y_43 y_44 y_45 y_46
 y_47 y_48 y_49 x_0_1 x_0_2 x_0_3 x_0_6 x_0_7 x_0_9 x_0_10 x_0_12 x_0_13
 x_0_14 x_0_19 x_0_21 x_0_22 x_0_24 x_0_25 x_0_26 x_0_28 x_0_30 x_0_31
 x_0_32 x_0_33 x_0_36 x_0_37 x_0_39 x_0_40 x_0_41 x_0_43 x_0_48 x_1_3 x_1_5
 x_1_7 x_1_8 x_1_9 x_1_10 x_1_16 x_1_21 x_1_22 x_1_29 x_1_30 x_1_32 x_1_34
 x_1_35 x_1_36 x_1_40 x_1_41 x_1_42 x_1_43 x_1_44 x_1_47 x_2_3 x_2_4 x_2_5
 x_2_6 x_2_7 x_2_9 x_2_10 x_2_13 x_2_14 x_2_21 x_2_23 x_2_24 x_2_28 x_2_31
 x_2_36 x_2_38 x_2_40 x_2_41 x_2_42 x_2_44 x_2_46 x_2_47 x_2_48 x_2_49
 x_3_4 x_3_5 x_3_8 x_3_13 x_3_16 x_3_18 x_3_20 x_3_24 x_3_25 x_3_26 x_3_27
 x_3_33 x_3_35 x_3_36 x_3_41 x_3_42 x_3_43 x_3_44 x_3_46 x_4_7 x_4_10
 x_4_11 x_4_16 x_4_23 x_4_29 x_4_31 x_4_33 x_4_34 x_4_40 x_4_41 x_4_42
 x_4_44 x_4_46 x_4_47 x_4_48 x_5_7 x_5_9 x_5_12 x_5_13 x_5_18 x_5_23 x_5_25
 x_5_26 x_5_28 x_5_29 x_5_31 x_5_32 x_5_33 x_5_35 x_5_37 x_5_38 x_5_39
 x_5_40 x_5_41 x_5_42 x_5_46 x_5_48 x_6_7 x_6_8 x_6_9 x_6_10 x_6_11 x_6_12
 x_6_13 x_6_14 x_6_20 x_6_21 x_6_22 x_6_23 x_6_25 x_6_31 x_6_33 x_6_38
 x_6_43 x_6_44 x_6_45 x_6_49 x_7_12 x_7_15 x_7_16 x_7_17 x_7_18 x_7_23
 x_7_24 x_7_25 x_7_28 x_7_29 x_7_31 x_7_33 x_7_38 x_7_42 x_7_43 x_7_44
 x_7_45 x_8_9 x_8_15 x_8_16 x_8_17 x_8_19 x_8_20 x_8_23 x_8_24 x_8_26
 x_8_28 x_8_29 x_8_32 x_8_33 x_8_36 x_8_41 x_8_44 x_8_48 x_8_49 x_9_10
 x_9_11 x_9_12 x_9_13 x_9_15 x_9_17 x_9_18 x_9_19 x_9_21 x_9_22 x_9_26
 x_9_27 x_9_28 x_9_29 x_9_31 x_9_36 x_9_37 x_9_38 x_9_39 x_9_40 x_9_41
 x_9_43 x_9_44 x_9_45 x_10_11 x_10_12 x_10_15 x_10_16 x_10_17 x_10_18
 x_10_19 x_10_22 x_10_26 x_10_27 x_10_29 x_10_30 x_10_31 x_10_32 x_10_33
 x_10_34 x_10_35 x_10_36 x_10_40 x_10_45 x_11_12 x_11_14 x_11_16 x_11_17
 x_11_18 x_11_20 x_11_25 x_11_26 x_11_27 x_11_28 x_11_29 x_11_30 x_11_32
 x_11_35 x_11_37 x_11_39 x_11_40 x_11_41 x_11_43 x_11_44 x_12_13 x_12_19
 x_12_20 x_12_21 x_12_22 x_12_23 x_12_25 x_12_27 x_12_28 x_12_30 x_12_32
 x_12_34 x_12_35 x_12_36 x_12_40 x_12_44 x_12_45 x_12_48 x_12_49 x_13_15
 x_13_16 x_13_18 x_13_19 x_13_21 x_13_24 x_13_25 x_13_29 x_13_34 x_13_35
 x_13_40 x_13_41 x_13_42 x_13_43 x_13_44 x_13_47 x_13_49 x_14_15 x_14_17
 x_14_19 x_14_20 x_14_21 x_14_23 x_14_25 x_14_30 x_14_33 x_14_34 x_14_37
 x_14_38 x_14_40 x_14_41 x_14_42 x_14_43 x_14_46 x_14_47 x_14_48 x_15_17
 x_15_18 x_15_20 x_15_24 x_15_25 x_15_26 x_15_30 x_15_32 x_15_33 x_15_36
 x_15_37 x_15_38 x_15_40 x_15_45 x_15_48 x_15_49 x_16_18 x_16_19 x_16_21
 x_16_22 x_16_25 x_16_29 x_16_30 x_16_31 x_16_32 x_16_34 x_16_37 x_16_38
 x_16_39 x_16_40 x_16_42 x_16_43 x_16_47 x_16_49 x_17_18 x_17_19 x_17_20
 x_17_21 x_17_23 x_17_24 x_17_25 x_17_28 x_17_29 x_17_31 x_17_35 x_17_38
 x_17_40 x_17_41 x_17_42 x_17_44 x_17_47 x_17_48 x_17_49 x_18_19 x_18_22
 x_18_24 x_18_25 x_18_27 x_18_32 x_18_33 x_18_34 x_18_35 x_18_38 x_18_39
 x_18_40 x_18_41 x_18_43 x_18_45 x_18_47 x_18_48 x_19_20 x_19_21 x_19_22
 x_19_24 x_19_25 x_19_27 x_19_30 x_19_31 x_19_33 x_19_34 x_19_37 x_19_39
 x_19_40 x_19_43 x_19_48 x_20_21 x_20_23 x_20_26 x_20_36 x_20_37 x_20_38
 x_20_39 x_20_43 x_20_45 x_20_46 x_20_48 x_20_49 x_21_22 x_21_23 x_21_24
 x_21_28 x_21_29 x_21_33 x_21_35 x_21_36 x_21_37 x_21_39 x_21_43 x_21_44
 x_21_47 x_21_49 x_22_23 x_22_24 x_22_27 x_22_28 x_22_29 x_22_30 x_22_31
 x_22_32 x_22_33 x_22_38 x_22_41 x_22_44 x_22_46 x_22_47 x_22_49 x_23_24
 x_23_25 x_23_27 x_23_29 x_23_30 x_23_31 x_23_32 x_23_36 x_23_37 x_23_39
 x_23_40 x_23_41 x_23_45 x_23_46 x_23_47 x_23_48 x_23_49 x_24_27 x_24_31
 x_24_32 x_24_33 x_24_34 x_24_36 x_24_37 x_24_39 x_24_40 x_24_41 x_24_42
 x_24_43 x_24_46 x_25_31 x_25_32 x_25_33 x_25_35 x_25_37 x_25_38 x_25_39
 x_25_40 x_25_41 x_25_43 x_25_44 x_25_47 x_25_48 x_25_49 x_26_27 x_26_28
 x_26_31 x_26_33 x_26_34 x_26_35 x_26_37 x_26_38 x_26_39 x_26_41 x_26_42
 x_26_45 x_26_47 x_26_48 x_27_28 x_27_31 x_27_33 x_27_35 x_27_36 x_27_37
 x_27_38 x_27_39 x_27_44 x_27_45 x_27_46 x_28_30 x_28_32 x_28_33 x_28_34
 x_28_35 x_28_36 x_28_37 x_28_40 x_28_42 x_28_45 x_28_47 x_28_48 x_29_30
 x_29_31 x_29_32 x_29_35 x_29_36 x_29_37 x_29_38 x_29_39 x_29_42 x_29_45
 x_29_46 x_29_47 x_29_49 x_30_32 x_30_33 x_30_41 x_30_42 x_30_43 x_30_45
 x_30_46 x_31_36 x_31_37 x_31_40 x_31_44 x_31_46 x_32_36 x_32_37 x_32_38
 x_32_39 x_32_41 x_32_42 x_32_43 x_32_46 x_32_47 x_32_48 x_33_37 x_33_40
 x_33_41 x_33_42 x_33_45 x_34_37 x_34_39 x_34_41 x_34_44 x_34_45 x_34_46
 x_34_48 x_34_49 x_35_39 x_35_40 x_35_48 x_35_49 x_36_38 x_36_39 x_36_41
 x_36_44 x_36_47 x_37_38 x_37_41 x_37_44 x_37_46 x_37_47 x_37_49 x_38_41
 x_38_42 x_39_40 x_39_41 x_39_42 x_39_45 x_39_46 x_39_49 x_40_42 x_40_43
 x_40_44 x_40_46 x_40_48 x_40_49 x_41_43 x_41_45 x_41_46 x_41_47 x_41_48
 x_42_43 x_42_44 x_42_45 x_42_46 x_42_47 x_42_48 x_42_49 x_43_47 x_43_48
 x_44_45 x_44_47 x_44_48 x_44_49 x_45_46 x_45_48 x_45_49 x_46_48 x_46_49
 x_47_0 x_47_48
End
